benchmarks/bfuzz0/4943263422222261012918122823449127852.smt2
(set-logic QF_FP)
(declare-const x0 (_ FloatingPoint 8 24))
(declare-const x1 (_ FloatingPoint 8 24))
(declare-const x2 (_ FloatingPoint 8 24))
(declare-const x3 (_ FloatingPoint 8 24))
(declare-const x4 (_ FloatingPoint 8 24))
(declare-const x5 (_ FloatingPoint 8 24))
(declare-const x6 (_ FloatingPoint 8 24))
(declare-const x7 (_ FloatingPoint 8 24))
(declare-const x8 (_ FloatingPoint 8 24))
(declare-const x9 (_ FloatingPoint 8 24))
(declare-const x10 (_ FloatingPoint 8 24))
(declare-const x11 (_ FloatingPoint 8 24))
(declare-const x12 (_ FloatingPoint 8 24))
(declare-const x13 (_ FloatingPoint 8 24))
(declare-const x14 (_ FloatingPoint 8 24))
(declare-const x15 (_ FloatingPoint 8 24))
(declare-const x16 (_ FloatingPoint 8 24))
(declare-const x17 (_ FloatingPoint 8 24))
(declare-const x18 (_ FloatingPoint 8 24))
(assert (fp.eq (fp.sub RNE (fp.add RNE x12 x10) (fp.mul RNE x9 x4)) (fp.mul RNE (fp.sub RNE x13 x12) (fp.neg x11))))
(assert (fp.geq (fp.add RNE (fp.mul RNE x9 x5) (fp.sub RNE x18 x11)) (fp.add RNE (fp.mul RNE x12 x5) (fp.div RNE x13 x3))))
(assert (fp.eq (fp.div RNE (fp.neg x18) (fp.neg x8)) (fp.sub RNE (fp.mul RNE x0 x6) (fp.add RNE x18 x6))))
(assert (fp.gt (fp.sub RNE (fp.div RNE x18 x8) (fp.div RNE x11 x0)) (fp.add RNE (fp.mul RNE x18 x11) (fp.neg x6))))
(assert (fp.eq (fp.sub RNE (fp.neg x14) (fp.div RNE x3 x5)) (fp.sub RNE (fp.div RNE x13 x0) (fp.add RNE x1 x9))))
(assert (fp.gt (fp.add RNE (fp.neg x17) (fp.add RNE x12 x6)) (fp.add RNE (fp.neg x7) (fp.sub RNE x7 x2))))
(assert (fp.gt (fp.mul RNE (fp.div RNE x16 x6) (fp.neg x10)) (fp.neg (fp.div RNE x12 x5))))
(assert (fp.leq (fp.sub RNE (fp.sub RNE x10 x12) (fp.sub RNE x0 x7)) (fp.div RNE (fp.mul RNE x7 x1) (fp.div RNE x1 x2))))
(assert (fp.gt (fp.sub RNE (fp.add RNE x1 x16) (fp.div RNE x18 x4)) (fp.div RNE (fp.neg x4) (fp.mul RNE x3 x18))))
(assert (fp.gt (fp.div RNE (fp.neg x18) (fp.mul RNE x15 x9)) (fp.sub RNE (fp.add RNE x1 x10) (fp.sub RNE x9 x6))))
(assert (fp.geq (fp.neg (fp.sub RNE x10 x5)) (fp.mul RNE (fp.div RNE x3 x7) (fp.mul RNE x2 x6))))
(assert (fp.lt (fp.sub RNE (fp.sub RNE x18 x14) (fp.div RNE x16 x17)) (fp.mul RNE (fp.mul RNE x1 x9) (fp.mul RNE x8 x1))))
(assert (fp.leq (fp.mul RNE (fp.div RNE x9 x7) (fp.sub RNE x4 x0)) (fp.add RNE (fp.div RNE x13 x8) (fp.mul RNE x17 x15))))
(assert (fp.lt (fp.neg (fp.sub RNE x14 x2)) (fp.div RNE (fp.div RNE x10 x2) (fp.div RNE x9 x11))))
(assert (fp.leq (fp.div RNE (fp.div RNE x8 x11) (fp.add RNE x9 x3)) (fp.mul RNE (fp.sub RNE x13 x5) (fp.sub RNE x18 x7))))
(assert (fp.leq (fp.div RNE (fp.sub RNE x12 x14) (fp.add RNE x8 x14)) (fp.mul RNE (fp.mul RNE x10 x12) (fp.mul RNE x12 x18))))
(assert (fp.lt (fp.mul RNE (fp.div RNE x1 x4) (fp.add RNE x16 x15)) (fp.sub RNE (fp.neg x15) (fp.mul RNE x8 x18))))
(assert (fp.geq (fp.mul RNE (fp.add RNE x3 x11) (fp.neg x11)) (fp.neg (fp.neg x16))))
(check-sat)
