db/data/4943263422222261012918122823449127852.z3.out
-------------------
2501.373554698
